%
% Generated Sudoku 16x16
% Density approximation: 0.40
%
x = array2d(1..n, 1..n, [
   _,   _,   _,   _,   _,   _,   _,  13,   _,   4,  16,   _,   _,   _,   _,   9,
   _,   _,  12,   _,   6,   _,   _,   5,   1,   _,   _,   _,   _,  10,  16,  14,
   _,   6,   _,   _,   _,   _,   _,   _,  13,  14,   3,  11,   _,   _,   _,   _,
   _,  16,   _,   _,  15,   _,   4,   _,  12,   _,   8,   _,   _,   _,   _,   6,
  10,   _,   _,   _,   _,   _,   _,  11,   7,   _,   _,  16,   _,   _,   _,   _,
   _,   _,   _,   _,   _,   _,  15,   _,   _,   6,   _,   _,   _,   _,   _,   8,
   _,   _,  15,   3,   _,   _,  16,   1,   2,   8,   _,   _,  10,  11,   _,   _,
   _,   8,   6,   _,  10,   4,  13,   3,   9,   5,   _,   _,  16,   7,   2,   _,
   _,  10,  13,   5,   _,  15,   1,   _,   4,   _,   _,   9,   _,  12,   _,   _,
   _,   1,  14,   _,   3,   _,   _,   _,  16,   _,   _,   _,   9,   _,  15,   _,
   3,   _,  11,   _,   _,   _,   7,  14,  15,  13,   6,  12,   _,   _,   1,   _,
   _,  15,   4,   9,   _,   _,   _,   _,   _,   _,   _,   3,   _,   _,   _,   _,
   _,   3,   _,   2,  13,   _,   6,   _,  14,  12,   _,   8,   _,   _,  10,   _,
   8,   7,   1,   _,   _,   _,  14,   _,   _,  15,  13,   _,   _,   _,   _,  16,
   9,   _,  10,   _,   4,   _,   _,  12,   _,   _,   _,   _,   _,   _,   8,  13,
   _,  12,  16,  15,   _,   _,   _,   8,   5,  11,   _,   _,   _,   _,   _,   3
]);

n = 16;
